30
5 1 7
5 2 41
6 1 158
7 3 37
7 5 85
9 8 54
10 1 89
10 2 58
11 3 51
11 5 39
11 7 37
11 8 100
12 0 79
12 2 38
12 4 142
12 8 9
12 9 29
13 0 112
13 5 14
13 6 72
13 12 26
14 1 97
14 3 157
14 10 30
15 4 18
15 5 47
16 0 86
16 9 20
17 12 56
17 14 46
17 16 133
18 3 53
19 8 110
19 14 65
20 2 125
20 8 111
20 9 101
20 12 35
20 17 105
20 18 18
20 19 99
21 12 62
21 15 86
21 17 91
21 18 141
22 0 35
22 11 67
22 15 153
23 21 16
24 20 137
24 23 46
25 17 150
25 19 52
25 21 149
26 2 94
26 10 94
26 14 49
26 15 2
26 22 133
26 23 81
26 25 15
27 10 35
27 13 99
27 15 121
27 21 81
28 2 12
28 5 22
28 6 136
28 13 7
29 4 146
29 22 129
